
Welcome to IBM(R) ILOG(R) CPLEX(R) Interactive Optimizer 12.7.1.0
  with Simplex, Mixed Integer & Barrier Optimizers
5725-A06 5725-A29 5724-Y48 5724-Y49 5724-Y54 5724-Y55 5655-Y21
Copyright IBM Corp. 1988, 2017.  All Rights Reserved.

Type 'help' for a list of available commands.
Type 'help' followed by a command name for more
information on commands.

CPLEX> New value for default parallel thread count: 1
CPLEX> New value for time limit in seconds: 3600
CPLEX> Problem 'eil76_m27.lp' read.
Read time = 0.17 sec. (16.96 ticks)
CPLEX> CPXPARAM_TimeLimit                               3600
CPXPARAM_Threads                                 1
CPXPARAM_Read_APIEncoding                        "UTF-8"
Tried aggregator 1 time.
MIP Presolve modified 157950 coefficients.
Reduced MIP has 7806 rows, 153976 columns, and 922701 nonzeros.
Reduced MIP has 153900 binaries, 75 generals, 0 SOSs, and 0 indicators.
Presolve time = 0.52 sec. (690.14 ticks)
Tried aggregator 1 time.
Reduced MIP has 7806 rows, 153976 columns, and 922701 nonzeros.
Reduced MIP has 153900 binaries, 76 generals, 0 SOSs, and 0 indicators.
Presolve time = 0.59 sec. (485.23 ticks)
Probing time = 0.16 sec. (73.99 ticks)
Clique table members: 303053.
MIP emphasis: balance optimality and feasibility.
MIP search method: dynamic search.
Parallel mode: none, using 1 thread.
Root relaxation solution time = 192.60 sec. (296730.82 ticks)

        Nodes                                         Cuts/
   Node  Left     Objective  IInf  Best Integer    Best Bound    ItCnt     Gap

      0     0       43.5306   268                     43.5306   297770         
      0     0       44.6512   285                    Cuts: 47   328045         
      0     0       45.0000   413                    Cuts: 89   362692         
      0     0       45.0000   431                    Cuts: 94   397643         
      0     0       45.0000   307                    Cuts: 20   405286         
      0     0       45.0000   366                   Cuts: 139   417587         
Heuristic still looking.
Heuristic still looking.
      0     2       45.0000   275                     45.0000   417587         
Elapsed time = 656.15 sec. (1029113.29 ticks, tree = 0.01 MB, solutions = 0)
      1     3       45.0000   290                     45.0000   428724         
      2     4       45.0000   301                     45.0000   435069         
      3     5       45.0000   316                     45.0000   435652         
      4     6       45.0000   291                     45.0000   435817         
      5     7       45.0000   306                     45.0000   439060         
      6     8       45.0000   384                     45.0000   448344         
      7     9       45.0000   289                     45.0000   448628         
      8    10       45.0000   309                     45.0000   449199         
      9    11       45.0000   301                     45.0000   457897         
     11    13       45.0612   288                     45.0000   464018         
Elapsed time = 737.21 sec. (1173778.71 ticks, tree = 1.45 MB, solutions = 0)
     12    14       45.0000   317                     45.0000   467098         
     14    16       45.0000   296                     45.0000   469288         
     16    18       45.0000   293                     45.0000   476746         
     18    20       45.0000   306                     45.0000   477258         
     19    21       47.0816   324                     45.0000   488753         
     20    22       45.0000   289                     45.0000   489230         
     21    23       45.0000   279                     45.0000   489268         
     22    24       45.0000   294                     45.0000   489765         
     23    25       45.0000   293                     45.0000   491738         
     25    27       45.0000   281                     45.0000   492402         
Elapsed time = 787.75 sec. (1266649.67 ticks, tree = 3.69 MB, solutions = 0)
     26    28       45.0000   287                     45.0000   494490         
     27    29       45.0000   275                     45.0000   495970         
     28    30       45.0000   284                     45.0000   497206         
     31    33       45.0000   271                     45.0000   499342         
     32    34       45.0000   282                     45.0000   499898         
     33    35       45.0451   279                     45.0000   505160         
     35    37       45.0000   270                     45.0000   506111         
     37    39       45.0000   233                     45.0000   507846         
     39    41       45.0527   267                     45.0000   508578         
     40    42       45.0000   251                     45.0000   508872         
Elapsed time = 813.30 sec. (1309718.23 ticks, tree = 5.96 MB, solutions = 0)
     42    44       45.0853   252                     45.0000   513223         
     44    46       45.0055   255                     45.0000   514833         
     45    47       45.0886   273                     45.0000   518110         
     49    51       57.3878   203                     45.0000   518916         
     52    54       45.1209   279                     45.0000   519436         
     57    56       49.5102   302                     45.0000   526906         
     59    58       49.5102   264                     45.0000   532182         
     60    59       49.5102   252                     45.0000   536078         
     61    60       50.7551   250                     45.0000   549191         
     66    64       54.0612   289                     45.0000   554355         
Elapsed time = 856.27 sec. (1381115.17 ticks, tree = 9.15 MB, solutions = 0)
     80    73       82.2449   155                     45.0000   554742         
    105    89      143.0714   173                     45.0000   555122         
    130   106      156.0000   122                     45.0000   555421         
    160   133      162.0000    88                     45.0000   555768         
    190   158      178.0000    21                     45.0000   556332         
*   193   157      integral     0      179.0000       45.0000   556365   74.86%
    200   163       64.4898   207      179.0000       45.0000   556846   74.86%
    215   172       96.0612   203      179.0000       45.0000   557246   74.86%
    220   177       96.2449   172      179.0000       45.0000   557305   74.86%
    240   190      137.0000   160      179.0000       45.0000   557594   74.86%
    264   210      142.4898   113      179.0000       45.0000   557937   74.86%
Elapsed time = 865.57 sec. (1393258.87 ticks, tree = 32.16 MB, solutions = 1)
    289   233      157.5986    86      179.0000       45.0000   558175   74.86%
    300   239       64.6122   220      179.0000       45.0000   558579   74.86%
    311   250       64.6122   266      179.0000       45.0000   558955   74.86%
    320   259       64.6122   235      179.0000       45.0000   559090   74.86%
    333   272       64.6122   259      179.0000       45.0000   559476   74.86%
    348   287       64.6122   286      179.0000       45.0000   559785   74.86%
    362   301       64.6122   276      179.0000       45.0000   560029   74.86%
    376   315       64.6122   280      179.0000       45.0000   560289   74.86%
    390   329       64.6122   266      179.0000       45.0000   560549   74.86%
    402   341       64.0000   256      179.0000       45.0000   565553   74.86%
Elapsed time = 885.97 sec. (1422394.91 ticks, tree = 52.38 MB, solutions = 1)
    406   345       68.0612   266      179.0000       45.0000   566070   74.86%
    410   349       68.0612   298      179.0000       45.0000   566529   74.86%
    414   353       68.1224   325      179.0000       45.0000   567556   74.86%
    415   354       68.1224   336      179.0000       45.0000   568108   74.86%
    418   357       68.1224   326      179.0000       45.0000   568663   74.86%
    419   358       68.1224   317      179.0000       45.0000   569267   74.86%
    421   360       68.1224   317      179.0000       45.0000   569935   74.86%
    429   368       68.1224   309      179.0000       45.0000   570436   74.86%
    432   371       68.1224   296      179.0000       45.0000   570875   74.86%
    440   379       68.1224   332      179.0000       45.0000   571324   74.86%
Elapsed time = 894.44 sec. (1435208.45 ticks, tree = 58.16 MB, solutions = 1)
    446   385       68.1224   316      179.0000       45.0000   571740   74.86%
    452   391       68.1224   340      179.0000       45.0000   572172   74.86%
    459   398       68.1224   290      179.0000       45.0000   572591   74.86%
    465   404       68.1224   287      179.0000       45.0000   572979   74.86%
    472   411       68.1224   292      179.0000       45.0000   573380   74.86%
    479   418       68.1224   304      179.0000       45.0000   573786   74.86%
    485   424       68.1224   314      179.0000       45.0000   574136   74.86%
    487   426       64.0000   320      179.0000       45.0000   582539   74.86%
    488   427       64.0000   285      179.0000       45.0000   586883   74.86%
    489   428       45.0000   261      179.0000       45.0000   720431   74.86%
Elapsed time = 1947.18 sec. (3009906.89 ticks, tree = 65.48 MB, solutions = 1)
    490   428       45.0000   337      179.0000       45.0000   727064   74.86%
    491   429       45.0000   320      179.0000       45.0000   727887   74.86%
    492   429       45.0000   372      179.0000       45.0000   749353   74.86%
    493   429       45.0000   334      179.0000       45.0000   749646   74.86%
    494   430       45.0000   326      179.0000       45.0000   755257   74.86%
    495   431       45.0000   330      179.0000       45.0000   769886   74.86%
    496   430       45.0000   315      179.0000       45.0000   769925   74.86%
    497   431       45.0000   321      179.0000       45.0000   775109   74.86%
    498   431       45.0000   294      179.0000       45.0000   775253   74.86%
    499   432       45.0000   299      179.0000       45.0000   786927   74.86%
Elapsed time = 2085.21 sec. (3245548.78 ticks, tree = 66.02 MB, solutions = 1)
    500   432       45.0000   316      179.0000       45.0000   786996   74.86%
    501   433       45.0000   312      179.0000       45.0000   786997   74.86%
    502   433       45.1545   535      179.0000       45.0000   796840   74.86%
    503   433       45.0000   305      179.0000       45.0000   796846   74.86%
    504   434       45.0000   319      179.0000       45.0000   807102   74.86%
    505   435       45.0000   322      179.0000       45.0000   807863   74.86%
    506   436       45.0000   302      179.0000       45.0000   807866   74.86%
    507   437       45.0000   300      179.0000       45.0000   807867   74.86%
    508   437       45.0000   304      179.0000       45.0000   825379   74.86%
    509   438       45.0000   298      179.0000       45.0000   825383   74.86%
Elapsed time = 2167.46 sec. (3385865.89 ticks, tree = 66.88 MB, solutions = 1)
    510   438       45.0000   295      179.0000       45.0000   825385   74.86%
    511   437       48.0000   288      179.0000       45.0000   838580   74.86%
    514   437       54.1224   246      179.0000       45.0000   838706   74.86%
    519   438       58.0000   366      179.0000       45.0000   879693   74.86%
    520   439       58.0000   366      179.0000       45.0000   879693   74.86%
    521   440       58.0000   416      179.0000       45.0000   880172   74.86%
    522   440       58.0000   397      179.0000       45.0000   880755   74.86%
    525   441       58.0000   378      179.0000       45.0000   880769   74.86%
    526   442      112.0000   344      179.0000       45.0000   894496   74.86%
    527   443       58.0000   372      179.0000       45.0000   894501   74.86%
Elapsed time = 2322.63 sec. (3637580.52 ticks, tree = 67.58 MB, solutions = 1)
    528   444       58.0000   303      179.0000       45.0000   912449   74.86%
    529   444       58.0000   316      179.0000       45.0000   935282   74.86%
    530   444       58.0000   282      179.0000       45.0000   935875   74.86%
    531   444       58.0000   301      179.0000       45.0000   936203   74.86%
    532   443       58.0000   287      179.0000       45.0000   936351   74.86%
    533   443       58.0000   289      179.0000       45.0000   936626   74.86%
    534   443       58.0000   273      179.0000       45.0000   936982   74.86%
    535   444       58.0000   278      179.0000       45.0000   938215   74.86%
    536   444       58.0000   328      179.0000       45.0000   938843   74.86%
    537   444       59.0000   242      179.0000       45.0000   939486   74.86%
Elapsed time = 2443.40 sec. (3844363.00 ticks, tree = 67.85 MB, solutions = 1)
    538   444       59.0000   262      179.0000       45.0000   939638   74.86%
    540   445       59.0000   312      179.0000       45.0000   941341   74.86%
    542   446       59.0000   239      179.0000       45.0000   953445   74.86%
    543   447       59.0000   233      179.0000       45.0000   953653   74.86%
    544   447       59.0000   294      179.0000       45.0000   963118   74.86%
    545   447       59.0000   232      179.0000       45.0000   963675   74.86%
    546   447       59.0000   237      179.0000       45.0000   963694   74.86%
    547   447       59.0000   261      179.0000       45.0000   964250   74.86%
    548   447       59.0000   277      179.0000       45.0000   964744   74.86%
    549   448       59.0000   225      179.0000       45.0000   964892   74.86%
Elapsed time = 2541.30 sec. (4004725.40 ticks, tree = 68.29 MB, solutions = 1)
    550   447       68.0000   211      179.0000       45.0000   965634   74.86%
    551   448       59.0000   217      179.0000       45.0000   965725   74.86%
    552   448       59.0000   290      179.0000       45.0000   967040   74.86%
    555   449       77.0000   265      179.0000       45.0000   979174   74.86%
    557   450       77.0000   322      179.0000       45.0000   980095   74.86%
    558   450       92.0000   224      179.0000       45.0000   989885   74.86%
    560   450       77.0000   270      179.0000       45.0000  1004364   74.86%
    562   451      124.0000   221      179.0000       45.0000  1014462   74.86%
    565   453      124.0000   177      179.0000       45.0000  1022895   74.86%
    567   453      168.0000   160      179.0000       45.0000  1027868   74.86%
Elapsed time = 2626.54 sec. (4137454.62 ticks, tree = 69.19 MB, solutions = 1)
    570   453      168.0000   208      179.0000       45.0000  1028376   74.86%
    574   456      168.0000   193      179.0000       45.0000  1033845   74.86%
    578   451      168.0000   204      179.0000       45.0000  1035225   74.86%
    586   457      168.0000   208      179.0000       45.0000  1035703   74.86%
    592   461      168.0000   207      179.0000       45.0000  1036741   74.86%
    597   464      168.0000   181      179.0000       45.0000  1037882   74.86%
    602   465      168.0000   192      179.0000       45.0000  1038416   74.86%
    609   464      169.0000   177      179.0000       45.0000  1039242   74.86%
    615   467      171.0000   106      179.0000       45.0000  1047528   74.86%
    624   472      173.2041   168      179.0000       45.0000  1048430   74.86%
Elapsed time = 2664.21 sec. (4187682.35 ticks, tree = 72.16 MB, solutions = 1)
    633   474      176.0000   161      179.0000       45.0000  1048891   74.86%
    647   477      176.0000   128      179.0000       45.0000  1049406   74.86%
    661   477       45.0000   298      179.0000       45.0000  1068149   74.86%
    662   478       45.0000   331      179.0000       45.0000  1081256   74.86%
    663   479       45.0000   344      179.0000       45.0000  1085628   74.86%
    665   480       45.0000   360      179.0000       45.0000  1088848   74.86%
    666   481       45.0000   340      179.0000       45.0000  1097152   74.86%
    667   482       45.0000   335      179.0000       45.0000  1100015   74.86%
    668   483       45.0000   322      179.0000       45.0000  1106279   74.86%
    669   484       45.0000   319      179.0000       45.0000  1106289   74.86%
Elapsed time = 2947.20 sec. (4669853.59 ticks, tree = 73.73 MB, solutions = 1)
    670   485       45.0000   310      179.0000       45.0000  1111434   74.86%
    672   485       45.0000   272      179.0000       45.0000  1113407   74.86%
    675   487       45.0000   283      179.0000       45.0000  1114505   74.86%
    676   486       45.0000   271      179.0000       45.0000  1119893   74.86%
    678   487       45.0000   285      179.0000       45.0000  1144390   74.86%
    679   487       45.0000   303      179.0000       45.0000  1164026   74.86%
    680   487       45.0000   297      179.0000       45.0000  1167733   74.86%
    681   488       45.0000   294      179.0000       45.0000  1168888   74.86%
    684   491       45.0000   268      179.0000       45.0000  1171022   74.86%
    686   491       45.0000   311      179.0000       45.0000  1176049   74.86%
Elapsed time = 3046.37 sec. (4838182.85 ticks, tree = 74.73 MB, solutions = 1)
    688   492       45.0359   272      179.0000       45.0000  1178636   74.86%
    689   493       45.0000   277      179.0000       45.0000  1179832   74.86%
    691   494       45.0000   263      179.0000       45.0000  1182570   74.86%
    693   494       45.7755   305      179.0000       45.0000  1190548   74.86%
    698   495       46.0000   282      179.0000       45.0000  1190576   74.86%
    700   495       48.9847   320      179.0000       45.0000  1198026   74.86%
    702   495       46.0000   287      179.0000       45.0000  1199123   74.86%
    708   497       46.0000   272      179.0000       45.0000  1210799   74.86%
    709   498       46.0000   273      179.0000       45.0000  1212849   74.86%
    710   498       46.0000   266      179.0000       45.0000  1214475   74.86%
Elapsed time = 3101.76 sec. (4931470.79 ticks, tree = 75.90 MB, solutions = 1)
    711   498       46.0000   266      179.0000       45.0000  1223330   74.86%
    714   497       46.0000   268      179.0000       45.0000  1224855   74.86%
    716   498       46.0000   246      179.0000       45.0000  1226595   74.86%
    719   499       46.1226   232      179.0000       45.0000  1229437   74.86%
    725   498       71.0000   179      179.0000       45.0000  1230075   74.86%
    735   494      101.2143   177      179.0000       45.0000  1230349   74.86%
    750   495      121.0000   157      179.0000       45.0000  1230532   74.86%
    767   500      141.7143   148      179.0000       45.0000  1230760   74.86%
    780   496       54.0612   328      179.0000       45.0000  1238137   74.86%
    782   495       55.0000   300      179.0000       45.0000  1251623   74.86%
Elapsed time = 3157.93 sec. (5019643.10 ticks, tree = 75.62 MB, solutions = 1)
    783   495       55.0000   323      179.0000       45.0000  1265110   74.86%
    785   495       55.0000   284      179.0000       45.0000  1277484   74.86%
    786   496       55.0000   338      179.0000       45.0000  1278837   74.86%
    789   498       55.0000   337      179.0000       45.0000  1278963   74.86%
    790   498       55.0000   255      179.0000       45.0000  1295818   74.86%
    791   499       55.0000   282      179.0000       45.0000  1307968   74.86%
    793   501       55.0000   287      179.0000       45.0000  1308455   74.86%
    795   501       55.0000   271      179.0000       45.0000  1322864   74.86%
    798   502       55.0000   256      179.0000       45.0000  1336348   74.86%
    800   504       55.0000   304      179.0000       45.0000  1375982   74.86%
Elapsed time = 3321.20 sec. (5271893.31 ticks, tree = 76.80 MB, solutions = 1)
    804   506       55.0000   323      179.0000       45.0000  1376002   74.86%
    806   507       55.0000   297      179.0000       45.0000  1392831   74.86%
    808   507       56.2245   281      179.0000       45.0000  1413238   74.86%
    812   508       59.3776   248      179.0000       45.0000  1429819   74.86%
    817   510       61.0000   258      179.0000       45.0000  1443191   74.86%
    819   510       61.0000   329      179.0000       45.0000  1443985   74.86%
    822   510       61.0000   247      179.0000       45.0000  1455883   74.86%
    823   511       61.0000   252      179.0000       45.0000  1458259   74.86%
    824   511       61.0000   298      179.0000       45.0000  1478738   74.86%
    827   512       65.4286   235      179.0000       45.0000  1489231   74.86%
Elapsed time = 3456.14 sec. (5478522.36 ticks, tree = 78.15 MB, solutions = 1)
    830   514       82.0816   209      179.0000       45.0000  1499190   74.86%
    832   514       83.0000   203      179.0000       45.0000  1500547   74.86%
    835   516       83.0000   262      179.0000       45.0000  1502364   74.86%
    837   517       84.4898   166      179.0000       45.0000  1507721   74.86%
    839   517       85.0000   233      179.0000       45.0000  1511428   74.86%
    842   519       85.0000   220      179.0000       45.0000  1515741   74.86%
    847   521       85.0000   203      179.0000       45.0000  1517611   74.86%
    849   522       85.0000   143      179.0000       45.0000  1523417   74.86%
    856   521      129.1633   128      179.0000       45.0000  1525749   74.86%
    870   524      163.0000    95      179.0000       45.0000  1526003   74.86%
Elapsed time = 3500.61 sec. (5539463.05 ticks, tree = 79.91 MB, solutions = 1)
    889   525      163.0000    45      179.0000       45.0000  1526383   74.86%
    891   525       46.0816   332      179.0000       45.0000  1540994   74.86%
    895   524       49.0000   234      179.0000       45.0000  1541088   74.86%
    899   528       49.0000   400      179.0000       45.0000  1541720   74.86%
    900   529       49.0000   426      179.0000       45.0000  1542365   74.86%
    903   531       49.0000   411      179.0000       45.0000  1542370   74.86%
    907   534       49.0000   319      179.0000       45.0000  1566412   74.86%
    909   535       49.0000   359      179.0000       45.0000  1583986   74.86%
    911   536       49.0000   344      179.0000       45.0000  1584589   74.86%

Clique cuts applied:  4
Cover cuts applied:  2
Implied bound cuts applied:  6
Mixed integer rounding cuts applied:  30
Zero-half cuts applied:  27
Gomory fractional cuts applied:  1

Root node processing (before b&c):
  Real time             =  613.11 sec. (996847.99 ticks)
Sequential b&c:
  Real time             = 2986.90 sec. (4697498.65 ticks)
                          ------------
Total (root+branch&cut) = 3600.01 sec. (5694346.64 ticks)

Solution pool: 1 solution saved.

MIP - Time limit exceeded, integer feasible:  Objective =  1.7900000000e+02
Current MIP best bound =  4.5000000000e+01 (gap = 134, 74.86%)
Solution time = 3600.01 sec.  Iterations = 1587893  Nodes = 912 (536)
Deterministic time = 5694347.08 ticks  (1581.76 ticks/sec)

CPLEX> Incumbent solution
Variable Name           Solution Value
y                           179.000000
x39                           1.000000
x5835                         1.000000
x11606                        1.000000
x17372                        1.000000
x23150                        1.000000
x28922                        1.000000
x34716                        1.000000
x40442                        1.000000
x46244                        1.000000
x52050                        1.000000
x57833                        1.000000
x63581                        1.000000
x69337                        1.000000
x75152                        1.000000
x80887                        1.000000
x86693                        1.000000
x92432                        1.000000
x98263                        1.000000
x103986                       1.000000
x109766                       1.000000
x115563                       1.000000
x121309                       1.000000
x127096                       1.000000
x132900                       1.000000
x138657                       1.000000
x144463                       1.000000
x150237                       1.000000
x609                          1.000000
x10185                        1.000000
x15581                        1.000000
x20597                        1.000000
x24473                        1.000000
x31997                        1.000000
x39141                        1.000000
x42713                        1.000000
x51377                        1.000000
x52745                        1.000000
x63233                        1.000000
x67033                        1.000000
x71669                        1.000000
x79877                        1.000000
x82841                        1.000000
x90593                        1.000000
x93405                        1.000000
x103437                       1.000000
x108073                       1.000000
x114381                       1.000000
x118713                       1.000000
x122209                       1.000000
x128821                       1.000000
x135433                       1.000000
x141057                       1.000000
x149113                       1.000000
x154737                       1.000000
x114838                       1.000000
x85047                        1.000000
x111952                       1.000000
x95157                        1.000000
x115450                       1.000000
x133387                       1.000000
x135364                       1.000000
x2897                         1.000000
x54807                        1.000000
x110972                       1.000000
x92734                        1.000000
x65679                        1.000000
x115157                       1.000000
x26543                        1.000000
x103532                       1.000000
x93577                        1.000000
x114786                       1.000000
x85147                        1.000000
x111368                       1.000000
x66909                        1.000000
x115322                       1.000000
x41147                        1.000000
x73068                        1.000000
x136758                       1.000000
x133339                       1.000000
x93973                        1.000000
x56886                        1.000000
x111684                       1.000000
x82577                        1.000000
x67155                        1.000000
x64648                        1.000000
x83953                        1.000000
x71186                        1.000000
x81067                        1.000000
x105315                       1.000000
x84568                        1.000000
x84721                        1.000000
x112766                       1.000000
x109882                       1.000000
x56989                        1.000000
x115435                       1.000000
x110192                       1.000000
x48937                        1.000000
x99706                        1.000000
x114148                       1.000000
x111870                       1.000000
x110047                       1.000000
x110656                       1.000000
u2                           16.000000
u3                            4.000000
u4                            4.000000
u5                            3.000000
u6                           14.000000
u7                            3.000000
u8                            2.000000
u9                            1.000000
u11                           3.000000
u12                          12.000000
u14                           4.000000
u15                          46.000000
u17                          11.000000
u19                           1.000000
u20                           1.000000
u21                           1.000000
u26                           7.000000
u27                           7.000000
u28                           1.000000
u29                          45.000000
u30                           3.000000
u31                          48.000000
u32                           2.000000
u34                           1.000000
u35                          48.000000
u37                           2.000000
u38                           2.000000
u40                           8.000000
u41                           1.000000
u42                          48.000000
u43                          48.000000
u47                          48.000000
u48                          47.000000
u49                           2.000000
u50                           1.000000
u51                           5.000000
u55                          48.000000
u56                           3.000000
u57                           6.000000
u58                           9.000000
u62                          48.000000
u65                           1.000000
u67                           6.000000
u68                          15.000000
u69                          48.000000
u70                           2.000000
u72                          10.000000
u74                           2.000000
u75                           5.000000
u76                          13.000000
All other variables in the range 1-153976 are 0.
CPLEX> 